r = [
0,24,19,30,15,7,19,18,17,23,20,15,1,18,13,1,13,16,18,30,2,11,12,11,28,22,0
];
p = [
0,22,8,11,28,14,2,5,2,4,15,9,19,7,5,22,11,28,26,2,8,24,19,29,13,1,0
];
e = [
0,20,17,1,7,14,10,5,3,17,18,13,12,3,10,18,3,16,18,7,11,18,4,19,17,7,0
];
d = [
0,403,380,314,282,358,326,264,332,344,381,300,279,400,390,326,240,329,384,353,290,318,385,324,287,368,414
];
d_bar = [
0,414,384,320,296,365,327,267,333,346,389,305,289,404,393,337,246,343,397,354,294,330,395,339,294,369,414
];
w = [
0,1.818181818,4.25,0.166666667,0.5,2,10,1.666666667,3,8.5,2.25,2.6,1.2,0.75,3.333333333,1.636363636,0.5,1.142857143,1.384615385,7,2.75,1.5,0.4,1.266666667,2.428571429,7,0
];
